; benchmark generated from python API
(set-info :status unknown)
(declare-fun x_months () Int)
(declare-fun x_beta () Int)
(assert
 (<= (- 1200) x_months))
(assert
 (>= 1199 x_months))
(assert
 (let ((?x1088 (mod x_months 48)))
 (let ((?x211 ((as const (Array Int Int)) 0)))
 (let ((?x213 (store ?x211 0 31)))
 (let ((?x216 (store ?x213 1 30)))
 (let ((?x218 (store ?x216 2 31)))
 (let ((?x220 (store ?x218 3 30)))
 (let ((?x222 (store ?x220 4 31)))
 (let ((?x224 (store ?x222 5 31)))
 (let ((?x226 (store ?x224 6 30)))
 (let ((?x228 (store ?x226 7 31)))
 (let ((?x230 (store ?x228 8 30)))
 (let ((?x232 (store ?x230 9 31)))
 (let ((?x234 (store ?x232 10 31)))
 (let ((?x237 (store ?x234 11 28)))
 (let ((?x239 (store ?x237 12 31)))
 (let ((?x241 (store ?x239 13 30)))
 (let ((?x243 (store ?x241 14 31)))
 (let ((?x245 (store ?x243 15 30)))
 (let ((?x247 (store ?x245 16 31)))
 (let ((?x249 (store ?x247 17 31)))
 (let ((?x251 (store ?x249 18 30)))
 (let ((?x253 (store ?x251 19 31)))
 (let ((?x255 (store ?x253 20 30)))
 (let ((?x257 (store ?x255 21 31)))
 (let ((?x259 (store ?x257 22 31)))
 (let ((?x261 (store ?x259 23 28)))
 (let ((?x263 (store ?x261 24 31)))
 (let ((?x265 (store ?x263 25 30)))
 (let ((?x267 (store ?x265 26 31)))
 (let ((?x269 (store ?x267 27 30)))
 (let ((?x270 (store ?x269 28 31)))
 (let ((?x272 (store ?x270 29 31)))
 (let ((?x273 (store ?x272 30 30)))
 (let ((?x274 (store ?x273 31 31)))
 (let ((?x276 (store ?x274 32 30)))
 (let ((?x278 (store ?x276 33 31)))
 (let ((?x280 (store ?x278 34 31)))
 (let ((?x282 (store ?x280 35 28)))
 (let ((?x284 (store ?x282 36 31)))
 (let ((?x286 (store ?x284 37 30)))
 (let ((?x288 (store ?x286 38 31)))
 (let ((?x290 (store ?x288 39 30)))
 (let ((?x292 (store ?x290 40 31)))
 (let ((?x294 (store ?x292 41 31)))
 (let ((?x296 (store ?x294 42 30)))
 (let ((?x298 (store ?x296 43 31)))
 (let ((?x300 (store ?x298 44 30)))
 (let ((?x302 (store ?x300 45 31)))
 (let ((?x304 (store ?x302 46 31)))
 (let ((?x306 (store ?x304 47 29)))
 (let ((?x4435 (select ?x306 ?x1088)))
 (let ((?x4699 (ite (or (= 22802 (+ x_months 24003)) (= 25202 (+ x_months 24003))) 28 ?x4435)))
 (let (($x593 (<= 0 x_beta)))
 (and $x593 (< x_beta ?x4699))))))))))))))))))))))))))))))))))))))))))))))))))))))))
(assert
 (let (($x593 (<= 0 x_beta)))
 (or (> x_months (- (+ (* 2020 12) 1) 24003)) (and (= x_months (- (+ (* 2020 12) 1) 24003)) $x593))))
(assert
 (let (($x4629 (and (= x_months (- (+ (* 2020 12) 2) 24003)) (>= 27 x_beta))))
 (or (< x_months (- (+ (* 2020 12) 2) 24003)) $x4629)))
(assert
 (let ((?x4986 (+ x_months 0)))
(let ((?x3679 (mod ?x4986 48)))
(let ((?x5271 (ite (> 22803 (+ ?x4986 24003)) 1 (ite (<= 25203 (+ ?x4986 24003)) (- 1) 0))))
(let ((?x211 ((as const (Array Int Int)) 0)))
(let ((?x213 (store ?x211 0 31)))
(let ((?x216 (store ?x213 1 30)))
(let ((?x218 (store ?x216 2 31)))
(let ((?x220 (store ?x218 3 30)))
(let ((?x222 (store ?x220 4 31)))
(let ((?x224 (store ?x222 5 31)))
(let ((?x226 (store ?x224 6 30)))
(let ((?x228 (store ?x226 7 31)))
(let ((?x230 (store ?x228 8 30)))
(let ((?x232 (store ?x230 9 31)))
(let ((?x234 (store ?x232 10 31)))
(let ((?x237 (store ?x234 11 28)))
(let ((?x239 (store ?x237 12 31)))
(let ((?x241 (store ?x239 13 30)))
(let ((?x243 (store ?x241 14 31)))
(let ((?x245 (store ?x243 15 30)))
(let ((?x247 (store ?x245 16 31)))
(let ((?x249 (store ?x247 17 31)))
(let ((?x251 (store ?x249 18 30)))
(let ((?x253 (store ?x251 19 31)))
(let ((?x255 (store ?x253 20 30)))
(let ((?x257 (store ?x255 21 31)))
(let ((?x259 (store ?x257 22 31)))
(let ((?x261 (store ?x259 23 28)))
(let ((?x263 (store ?x261 24 31)))
(let ((?x265 (store ?x263 25 30)))
(let ((?x267 (store ?x265 26 31)))
(let ((?x269 (store ?x267 27 30)))
(let ((?x270 (store ?x269 28 31)))
(let ((?x272 (store ?x270 29 31)))
(let ((?x273 (store ?x272 30 30)))
(let ((?x274 (store ?x273 31 31)))
(let ((?x276 (store ?x274 32 30)))
(let ((?x278 (store ?x276 33 31)))
(let ((?x280 (store ?x278 34 31)))
(let ((?x282 (store ?x280 35 28)))
(let ((?x284 (store ?x282 36 31)))
(let ((?x286 (store ?x284 37 30)))
(let ((?x288 (store ?x286 38 31)))
(let ((?x290 (store ?x288 39 30)))
(let ((?x292 (store ?x290 40 31)))
(let ((?x294 (store ?x292 41 31)))
(let ((?x296 (store ?x294 42 30)))
(let ((?x298 (store ?x296 43 31)))
(let ((?x300 (store ?x298 44 30)))
(let ((?x302 (store ?x300 45 31)))
(let ((?x304 (store ?x302 46 31)))
(let ((?x306 (store ?x304 47 29)))
(let ((?x1588 (ite (or (= 22802 (+ ?x4986 24003)) (= 25202 (+ ?x4986 24003))) 28 (select ?x306 ?x3679))))
(let ((?x1515 (- ?x1588 1)))
(let (($x4643 (> 0 x_beta)))
(let ((?x312 (store (store (store (store ?x211 0 0) 1 31) 2 61) 3 92)))
(let ((?x320 (store (store (store (store ?x312 4 122) 5 153) 6 184) 7 214)))
(let ((?x328 (store (store (store (store ?x320 8 245) 9 275) 10 306) 11 337)))
(let ((?x336 (store (store (store (store ?x328 12 365) 13 396) 14 426) 15 457)))
(let ((?x344 (store (store (store (store ?x336 16 487) 17 518) 18 549) 19 579)))
(let ((?x352 (store (store (store (store ?x344 20 610) 21 640) 22 671) 23 702)))
(let ((?x360 (store (store (store (store ?x352 24 730) 25 761) 26 791) 27 822)))
(let ((?x368 (store (store (store (store ?x360 28 852) 29 883) 30 914) 31 944)))
(let ((?x376 (store (store (store (store ?x368 32 975) 33 1005) 34 1036) 35 1067)))
(let ((?x384 (store (store (store (store ?x376 36 1095) 37 1126) 38 1156) 39 1187)))
(let ((?x392 (store (store (store (store ?x384 40 1217) 41 1248) 42 1279) 43 1309)))
(let ((?x400 (store (store (store (store ?x392 44 1340) 45 1370) 46 1401) 47 1432)))
(let ((?x5047 (+ (select ?x400 ?x3679) (ite $x4643 0 (ite (> x_beta ?x1515) ?x1515 x_beta)))))
(let ((?x5559 (+ (+ ?x5047 ?x5271) 365)))
(let ((?x2492 (+ ?x4986 (* (div ?x5559 1461) 48))))
(let ((?x5417 (+ (+ ?x2492 (- 1 ?x3679)) 24003)))
(let ((?x2850 (select ?x400 1)))
(let ((?x4222 (mod ?x5559 1461)))
(let (($x5636 (>= ?x4222 (+ ?x2850 (ite (> 22803 ?x5417) 1 (ite (<= 25203 ?x5417) (- 1) 0))))))
(let ((?x4190 (ite (> 22803 (+ (+ ?x2492 (- 2 ?x3679)) 24003)) 1 (ite (<= 25203 (+ (+ ?x2492 (- 2 ?x3679)) 24003)) (- 1) 0))))
(let ((?x5503 (select ?x400 2)))
(let ((?x1342 (ite (> 22803 (+ (+ ?x2492 (- 3 ?x3679)) 24003)) 1 (ite (<= 25203 (+ (+ ?x2492 (- 3 ?x3679)) 24003)) (- 1) 0))))
(let ((?x1982 (select ?x400 3)))
(let ((?x2212 (ite (>= ?x4222 (+ ?x1982 ?x1342)) 3 (ite (>= ?x4222 (+ ?x5503 ?x4190)) 2 (ite $x5636 1 0)))))
(let ((?x5321 (ite (> 22803 (+ (+ ?x2492 (- 4 ?x3679)) 24003)) 1 (ite (<= 25203 (+ (+ ?x2492 (- 4 ?x3679)) 24003)) (- 1) 0))))
(let ((?x2689 (select ?x400 4)))
(let ((?x1718 (ite (> 22803 (+ (+ ?x2492 (- 5 ?x3679)) 24003)) 1 (ite (<= 25203 (+ (+ ?x2492 (- 5 ?x3679)) 24003)) (- 1) 0))))
(let ((?x2182 (select ?x400 5)))
(let ((?x5103 (ite (>= ?x4222 (+ ?x2182 ?x1718)) 5 (ite (>= ?x4222 (+ ?x2689 ?x5321)) 4 ?x2212))))
(let ((?x5537 (ite (> 22803 (+ (+ ?x2492 (- 6 ?x3679)) 24003)) 1 (ite (<= 25203 (+ (+ ?x2492 (- 6 ?x3679)) 24003)) (- 1) 0))))
(let ((?x2111 (select ?x400 6)))
(let ((?x5819 (ite (> 22803 (+ (+ ?x2492 (- 7 ?x3679)) 24003)) 1 (ite (<= 25203 (+ (+ ?x2492 (- 7 ?x3679)) 24003)) (- 1) 0))))
(let ((?x1146 (select ?x400 7)))
(let ((?x5023 (ite (>= ?x4222 (+ ?x1146 ?x5819)) 7 (ite (>= ?x4222 (+ ?x2111 ?x5537)) 6 ?x5103))))
(let ((?x4717 (ite (> 22803 (+ (+ ?x2492 (- 8 ?x3679)) 24003)) 1 (ite (<= 25203 (+ (+ ?x2492 (- 8 ?x3679)) 24003)) (- 1) 0))))
(let ((?x5202 (select ?x400 8)))
(let ((?x3484 (ite (> 22803 (+ (+ ?x2492 (- 9 ?x3679)) 24003)) 1 (ite (<= 25203 (+ (+ ?x2492 (- 9 ?x3679)) 24003)) (- 1) 0))))
(let ((?x794 (select ?x400 9)))
(let ((?x1279 (ite (>= ?x4222 (+ ?x794 ?x3484)) 9 (ite (>= ?x4222 (+ ?x5202 ?x4717)) 8 ?x5023))))
(let ((?x4756 (ite (> 22803 (+ (+ ?x2492 (- 10 ?x3679)) 24003)) 1 (ite (<= 25203 (+ (+ ?x2492 (- 10 ?x3679)) 24003)) (- 1) 0))))
(let ((?x3181 (select ?x400 10)))
(let ((?x616 (ite (> 22803 (+ (+ ?x2492 (- 11 ?x3679)) 24003)) 1 (ite (<= 25203 (+ (+ ?x2492 (- 11 ?x3679)) 24003)) (- 1) 0))))
(let ((?x1299 (select ?x400 11)))
(let ((?x5036 (ite (>= ?x4222 (+ ?x1299 ?x616)) 11 (ite (>= ?x4222 (+ ?x3181 ?x4756)) 10 ?x1279))))
(let ((?x2547 (ite (> 22803 (+ (+ ?x2492 (- 12 ?x3679)) 24003)) 1 (ite (<= 25203 (+ (+ ?x2492 (- 12 ?x3679)) 24003)) (- 1) 0))))
(let ((?x713 (select ?x400 12)))
(let ((?x3193 (ite (> 22803 (+ (+ ?x2492 (- 13 ?x3679)) 24003)) 1 (ite (<= 25203 (+ (+ ?x2492 (- 13 ?x3679)) 24003)) (- 1) 0))))
(let ((?x2214 (select ?x400 13)))
(let ((?x4980 (ite (>= ?x4222 (+ ?x2214 ?x3193)) 13 (ite (>= ?x4222 (+ ?x713 ?x2547)) 12 ?x5036))))
(let ((?x1009 (ite (> 22803 (+ (+ ?x2492 (- 14 ?x3679)) 24003)) 1 (ite (<= 25203 (+ (+ ?x2492 (- 14 ?x3679)) 24003)) (- 1) 0))))
(let ((?x2373 (select ?x400 14)))
(let ((?x5254 (ite (> 22803 (+ (+ ?x2492 (- 15 ?x3679)) 24003)) 1 (ite (<= 25203 (+ (+ ?x2492 (- 15 ?x3679)) 24003)) (- 1) 0))))
(let ((?x817 (select ?x400 15)))
(let ((?x2316 (ite (>= ?x4222 (+ ?x817 ?x5254)) 15 (ite (>= ?x4222 (+ ?x2373 ?x1009)) 14 ?x4980))))
(let ((?x5641 (ite (> 22803 (+ (+ ?x2492 (- 16 ?x3679)) 24003)) 1 (ite (<= 25203 (+ (+ ?x2492 (- 16 ?x3679)) 24003)) (- 1) 0))))
(let ((?x4499 (select ?x400 16)))
(let ((?x751 (ite (> 22803 (+ (+ ?x2492 (- 17 ?x3679)) 24003)) 1 (ite (<= 25203 (+ (+ ?x2492 (- 17 ?x3679)) 24003)) (- 1) 0))))
(let ((?x2013 (select ?x400 17)))
(let ((?x4529 (ite (>= ?x4222 (+ ?x2013 ?x751)) 17 (ite (>= ?x4222 (+ ?x4499 ?x5641)) 16 ?x2316))))
(let ((?x4803 (ite (> 22803 (+ (+ ?x2492 (- 18 ?x3679)) 24003)) 1 (ite (<= 25203 (+ (+ ?x2492 (- 18 ?x3679)) 24003)) (- 1) 0))))
(let ((?x5317 (select ?x400 18)))
(let ((?x2740 (ite (> 22803 (+ (+ ?x2492 (- 19 ?x3679)) 24003)) 1 (ite (<= 25203 (+ (+ ?x2492 (- 19 ?x3679)) 24003)) (- 1) 0))))
(let ((?x1584 (select ?x400 19)))
(let ((?x1505 (ite (>= ?x4222 (+ ?x1584 ?x2740)) 19 (ite (>= ?x4222 (+ ?x5317 ?x4803)) 18 ?x4529))))
(let ((?x3460 (ite (> 22803 (+ (+ ?x2492 (- 20 ?x3679)) 24003)) 1 (ite (<= 25203 (+ (+ ?x2492 (- 20 ?x3679)) 24003)) (- 1) 0))))
(let ((?x5004 (select ?x400 20)))
(let ((?x2895 (ite (> 22803 (+ (+ ?x2492 (- 21 ?x3679)) 24003)) 1 (ite (<= 25203 (+ (+ ?x2492 (- 21 ?x3679)) 24003)) (- 1) 0))))
(let ((?x5396 (select ?x400 21)))
(let ((?x5438 (ite (>= ?x4222 (+ ?x5396 ?x2895)) 21 (ite (>= ?x4222 (+ ?x5004 ?x3460)) 20 ?x1505))))
(let ((?x3877 (ite (> 22803 (+ (+ ?x2492 (- 22 ?x3679)) 24003)) 1 (ite (<= 25203 (+ (+ ?x2492 (- 22 ?x3679)) 24003)) (- 1) 0))))
(let ((?x3918 (select ?x400 22)))
(let ((?x2040 (ite (> 22803 (+ (+ ?x2492 (- 23 ?x3679)) 24003)) 1 (ite (<= 25203 (+ (+ ?x2492 (- 23 ?x3679)) 24003)) (- 1) 0))))
(let ((?x1377 (select ?x400 23)))
(let ((?x5711 (ite (>= ?x4222 (+ ?x1377 ?x2040)) 23 (ite (>= ?x4222 (+ ?x3918 ?x3877)) 22 ?x5438))))
(let ((?x4704 (ite (> 22803 (+ (+ ?x2492 (- 24 ?x3679)) 24003)) 1 (ite (<= 25203 (+ (+ ?x2492 (- 24 ?x3679)) 24003)) (- 1) 0))))
(let ((?x1542 (select ?x400 24)))
(let ((?x5722 (ite (> 22803 (+ (+ ?x2492 (- 25 ?x3679)) 24003)) 1 (ite (<= 25203 (+ (+ ?x2492 (- 25 ?x3679)) 24003)) (- 1) 0))))
(let ((?x4784 (select ?x400 25)))
(let ((?x5489 (ite (>= ?x4222 (+ ?x4784 ?x5722)) 25 (ite (>= ?x4222 (+ ?x1542 ?x4704)) 24 ?x5711))))
(let ((?x1886 (ite (> 22803 (+ (+ ?x2492 (- 26 ?x3679)) 24003)) 1 (ite (<= 25203 (+ (+ ?x2492 (- 26 ?x3679)) 24003)) (- 1) 0))))
(let ((?x2871 (select ?x400 26)))
(let ((?x5783 (ite (> 22803 (+ (+ ?x2492 (- 27 ?x3679)) 24003)) 1 (ite (<= 25203 (+ (+ ?x2492 (- 27 ?x3679)) 24003)) (- 1) 0))))
(let ((?x5243 (select ?x400 27)))
(let ((?x4923 (ite (>= ?x4222 (+ ?x5243 ?x5783)) 27 (ite (>= ?x4222 (+ ?x2871 ?x1886)) 26 ?x5489))))
(let ((?x4828 (ite (> 22803 (+ (+ ?x2492 (- 28 ?x3679)) 24003)) 1 (ite (<= 25203 (+ (+ ?x2492 (- 28 ?x3679)) 24003)) (- 1) 0))))
(let ((?x2796 (select ?x400 28)))
(let ((?x5199 (ite (> 22803 (+ (+ ?x2492 (- 29 ?x3679)) 24003)) 1 (ite (<= 25203 (+ (+ ?x2492 (- 29 ?x3679)) 24003)) (- 1) 0))))
(let ((?x5838 (select ?x400 29)))
(let ((?x5657 (ite (>= ?x4222 (+ ?x5838 ?x5199)) 29 (ite (>= ?x4222 (+ ?x2796 ?x4828)) 28 ?x4923))))
(let ((?x2795 (ite (> 22803 (+ (+ ?x2492 (- 30 ?x3679)) 24003)) 1 (ite (<= 25203 (+ (+ ?x2492 (- 30 ?x3679)) 24003)) (- 1) 0))))
(let ((?x4215 (select ?x400 30)))
(let ((?x1156 (ite (> 22803 (+ (+ ?x2492 (- 31 ?x3679)) 24003)) 1 (ite (<= 25203 (+ (+ ?x2492 (- 31 ?x3679)) 24003)) (- 1) 0))))
(let ((?x4105 (select ?x400 31)))
(let ((?x3380 (ite (>= ?x4222 (+ ?x4105 ?x1156)) 31 (ite (>= ?x4222 (+ ?x4215 ?x2795)) 30 ?x5657))))
(let ((?x5420 (ite (> 22803 (+ (+ ?x2492 (- 32 ?x3679)) 24003)) 1 (ite (<= 25203 (+ (+ ?x2492 (- 32 ?x3679)) 24003)) (- 1) 0))))
(let ((?x741 (select ?x400 32)))
(let ((?x2336 (ite (> 22803 (+ (+ ?x2492 (- 33 ?x3679)) 24003)) 1 (ite (<= 25203 (+ (+ ?x2492 (- 33 ?x3679)) 24003)) (- 1) 0))))
(let ((?x2854 (select ?x400 33)))
(let ((?x5509 (ite (>= ?x4222 (+ ?x2854 ?x2336)) 33 (ite (>= ?x4222 (+ ?x741 ?x5420)) 32 ?x3380))))
(let ((?x1987 (ite (> 22803 (+ (+ ?x2492 (- 34 ?x3679)) 24003)) 1 (ite (<= 25203 (+ (+ ?x2492 (- 34 ?x3679)) 24003)) (- 1) 0))))
(let ((?x5675 (select ?x400 34)))
(let ((?x1340 (ite (> 22803 (+ (+ ?x2492 (- 35 ?x3679)) 24003)) 1 (ite (<= 25203 (+ (+ ?x2492 (- 35 ?x3679)) 24003)) (- 1) 0))))
(let ((?x3942 (select ?x400 35)))
(let ((?x5375 (ite (>= ?x4222 (+ ?x3942 ?x1340)) 35 (ite (>= ?x4222 (+ ?x5675 ?x1987)) 34 ?x5509))))
(let ((?x5244 (ite (> 22803 (+ (+ ?x2492 (- 36 ?x3679)) 24003)) 1 (ite (<= 25203 (+ (+ ?x2492 (- 36 ?x3679)) 24003)) (- 1) 0))))
(let ((?x2744 (select ?x400 36)))
(let ((?x3211 (ite (> 22803 (+ (+ ?x2492 (- 37 ?x3679)) 24003)) 1 (ite (<= 25203 (+ (+ ?x2492 (- 37 ?x3679)) 24003)) (- 1) 0))))
(let ((?x2003 (select ?x400 37)))
(let ((?x4298 (ite (>= ?x4222 (+ ?x2003 ?x3211)) 37 (ite (>= ?x4222 (+ ?x2744 ?x5244)) 36 ?x5375))))
(let ((?x1283 (ite (> 22803 (+ (+ ?x2492 (- 38 ?x3679)) 24003)) 1 (ite (<= 25203 (+ (+ ?x2492 (- 38 ?x3679)) 24003)) (- 1) 0))))
(let ((?x4856 (select ?x400 38)))
(let ((?x2288 (ite (> 22803 (+ (+ ?x2492 (- 39 ?x3679)) 24003)) 1 (ite (<= 25203 (+ (+ ?x2492 (- 39 ?x3679)) 24003)) (- 1) 0))))
(let ((?x4952 (select ?x400 39)))
(let ((?x5605 (ite (>= ?x4222 (+ ?x4952 ?x2288)) 39 (ite (>= ?x4222 (+ ?x4856 ?x1283)) 38 ?x4298))))
(let ((?x3793 (ite (> 22803 (+ (+ ?x2492 (- 40 ?x3679)) 24003)) 1 (ite (<= 25203 (+ (+ ?x2492 (- 40 ?x3679)) 24003)) (- 1) 0))))
(let ((?x5632 (select ?x400 40)))
(let ((?x3655 (ite (> 22803 (+ (+ ?x2492 (- 41 ?x3679)) 24003)) 1 (ite (<= 25203 (+ (+ ?x2492 (- 41 ?x3679)) 24003)) (- 1) 0))))
(let ((?x4849 (select ?x400 41)))
(let ((?x1790 (ite (>= ?x4222 (+ ?x4849 ?x3655)) 41 (ite (>= ?x4222 (+ ?x5632 ?x3793)) 40 ?x5605))))
(let ((?x1786 (ite (> 22803 (+ (+ ?x2492 (- 42 ?x3679)) 24003)) 1 (ite (<= 25203 (+ (+ ?x2492 (- 42 ?x3679)) 24003)) (- 1) 0))))
(let ((?x4819 (select ?x400 42)))
(let ((?x5474 (ite (> 22803 (+ (+ ?x2492 (- 43 ?x3679)) 24003)) 1 (ite (<= 25203 (+ (+ ?x2492 (- 43 ?x3679)) 24003)) (- 1) 0))))
(let ((?x5447 (select ?x400 43)))
(let ((?x1438 (ite (>= ?x4222 (+ ?x5447 ?x5474)) 43 (ite (>= ?x4222 (+ ?x4819 ?x1786)) 42 ?x1790))))
(let ((?x1984 (ite (> 22803 (+ (+ ?x2492 (- 44 ?x3679)) 24003)) 1 (ite (<= 25203 (+ (+ ?x2492 (- 44 ?x3679)) 24003)) (- 1) 0))))
(let ((?x3649 (select ?x400 44)))
(let ((?x5222 (ite (> 22803 (+ (+ ?x2492 (- 45 ?x3679)) 24003)) 1 (ite (<= 25203 (+ (+ ?x2492 (- 45 ?x3679)) 24003)) (- 1) 0))))
(let ((?x782 (select ?x400 45)))
(let ((?x4977 (ite (>= ?x4222 (+ ?x782 ?x5222)) 45 (ite (>= ?x4222 (+ ?x3649 ?x1984)) 44 ?x1438))))
(let ((?x4484 (ite (> 22803 (+ (+ ?x2492 (- 46 ?x3679)) 24003)) 1 (ite (<= 25203 (+ (+ ?x2492 (- 46 ?x3679)) 24003)) (- 1) 0))))
(let ((?x2995 (select ?x400 46)))
(let ((?x2567 (ite (> 22803 (+ (+ ?x2492 (- 47 ?x3679)) 24003)) 1 (ite (<= 25203 (+ (+ ?x2492 (- 47 ?x3679)) 24003)) (- 1) 0))))
(let ((?x3420 (select ?x400 47)))
(let ((?x3084 (ite (>= ?x4222 (+ ?x3420 ?x2567)) 47 (ite (>= ?x4222 (+ ?x2995 ?x4484)) 46 ?x4977))))
(let ((?x3388 (+ ?x2492 (- ?x3084 ?x3679))))
(let ((?x5122 (+ ?x3388 24003)))
(let ((?x5183 (+ (select ?x400 ?x3084) (ite (> 22803 ?x5122) 1 (ite (<= 25203 ?x5122) (- 1) 0)))))
(let ((?x4936 (- ?x4222 ?x5183)))
(let ((?x3606 (ite (or (= 22802 ?x5122) (= 25202 ?x5122)) 28 (select ?x306 ?x3084))))
(let ((?x2686 (+ x_months 12)))
(let ((?x2972 (mod ?x2686 48)))
(let ((?x4161 (ite (> 22803 (+ ?x2686 24003)) 1 (ite (<= 25203 (+ ?x2686 24003)) (- 1) 0))))
(let ((?x4335 (ite (or (= 22802 (+ ?x2686 24003)) (= 25202 (+ ?x2686 24003))) 28 (select ?x306 ?x2972))))
(let ((?x3143 (- ?x4335 1)))
(let ((?x455 (+ (select ?x400 ?x2972) (ite $x4643 0 (ite (> x_beta ?x3143) ?x3143 x_beta)))))
(let ((?x2016 (+ (+ ?x455 ?x4161) 0)))
(let ((?x2614 (+ ?x2686 (* (div ?x2016 1461) 48))))
(let ((?x4536 (+ (+ ?x2614 (- 1 ?x2972)) 24003)))
(let ((?x4564 (mod ?x2016 1461)))
(let (($x3678 (>= ?x4564 (+ ?x2850 (ite (> 22803 ?x4536) 1 (ite (<= 25203 ?x4536) (- 1) 0))))))
(let ((?x4857 (ite (> 22803 (+ (+ ?x2614 (- 2 ?x2972)) 24003)) 1 (ite (<= 25203 (+ (+ ?x2614 (- 2 ?x2972)) 24003)) (- 1) 0))))
(let ((?x4417 (ite (> 22803 (+ (+ ?x2614 (- 3 ?x2972)) 24003)) 1 (ite (<= 25203 (+ (+ ?x2614 (- 3 ?x2972)) 24003)) (- 1) 0))))
(let ((?x1251 (ite (>= ?x4564 (+ ?x1982 ?x4417)) 3 (ite (>= ?x4564 (+ ?x5503 ?x4857)) 2 (ite $x3678 1 0)))))
(let ((?x1256 (ite (> 22803 (+ (+ ?x2614 (- 4 ?x2972)) 24003)) 1 (ite (<= 25203 (+ (+ ?x2614 (- 4 ?x2972)) 24003)) (- 1) 0))))
(let ((?x4912 (ite (> 22803 (+ (+ ?x2614 (- 5 ?x2972)) 24003)) 1 (ite (<= 25203 (+ (+ ?x2614 (- 5 ?x2972)) 24003)) (- 1) 0))))
(let ((?x4174 (ite (>= ?x4564 (+ ?x2182 ?x4912)) 5 (ite (>= ?x4564 (+ ?x2689 ?x1256)) 4 ?x1251))))
(let ((?x4219 (ite (> 22803 (+ (+ ?x2614 (- 6 ?x2972)) 24003)) 1 (ite (<= 25203 (+ (+ ?x2614 (- 6 ?x2972)) 24003)) (- 1) 0))))
(let ((?x2612 (ite (> 22803 (+ (+ ?x2614 (- 7 ?x2972)) 24003)) 1 (ite (<= 25203 (+ (+ ?x2614 (- 7 ?x2972)) 24003)) (- 1) 0))))
(let ((?x2337 (ite (>= ?x4564 (+ ?x1146 ?x2612)) 7 (ite (>= ?x4564 (+ ?x2111 ?x4219)) 6 ?x4174))))
(let ((?x1868 (ite (> 22803 (+ (+ ?x2614 (- 8 ?x2972)) 24003)) 1 (ite (<= 25203 (+ (+ ?x2614 (- 8 ?x2972)) 24003)) (- 1) 0))))
(let ((?x903 (ite (> 22803 (+ (+ ?x2614 (- 9 ?x2972)) 24003)) 1 (ite (<= 25203 (+ (+ ?x2614 (- 9 ?x2972)) 24003)) (- 1) 0))))
(let ((?x2659 (ite (>= ?x4564 (+ ?x794 ?x903)) 9 (ite (>= ?x4564 (+ ?x5202 ?x1868)) 8 ?x2337))))
(let ((?x4226 (ite (> 22803 (+ (+ ?x2614 (- 10 ?x2972)) 24003)) 1 (ite (<= 25203 (+ (+ ?x2614 (- 10 ?x2972)) 24003)) (- 1) 0))))
(let ((?x4489 (ite (> 22803 (+ (+ ?x2614 (- 11 ?x2972)) 24003)) 1 (ite (<= 25203 (+ (+ ?x2614 (- 11 ?x2972)) 24003)) (- 1) 0))))
(let ((?x2364 (ite (>= ?x4564 (+ ?x1299 ?x4489)) 11 (ite (>= ?x4564 (+ ?x3181 ?x4226)) 10 ?x2659))))
(let ((?x1278 (ite (> 22803 (+ (+ ?x2614 (- 12 ?x2972)) 24003)) 1 (ite (<= 25203 (+ (+ ?x2614 (- 12 ?x2972)) 24003)) (- 1) 0))))
(let ((?x3123 (ite (> 22803 (+ (+ ?x2614 (- 13 ?x2972)) 24003)) 1 (ite (<= 25203 (+ (+ ?x2614 (- 13 ?x2972)) 24003)) (- 1) 0))))
(let ((?x2339 (ite (>= ?x4564 (+ ?x2214 ?x3123)) 13 (ite (>= ?x4564 (+ ?x713 ?x1278)) 12 ?x2364))))
(let ((?x2774 (ite (> 22803 (+ (+ ?x2614 (- 14 ?x2972)) 24003)) 1 (ite (<= 25203 (+ (+ ?x2614 (- 14 ?x2972)) 24003)) (- 1) 0))))
(let ((?x2601 (ite (> 22803 (+ (+ ?x2614 (- 15 ?x2972)) 24003)) 1 (ite (<= 25203 (+ (+ ?x2614 (- 15 ?x2972)) 24003)) (- 1) 0))))
(let ((?x5038 (ite (>= ?x4564 (+ ?x817 ?x2601)) 15 (ite (>= ?x4564 (+ ?x2373 ?x2774)) 14 ?x2339))))
(let ((?x4854 (ite (> 22803 (+ (+ ?x2614 (- 16 ?x2972)) 24003)) 1 (ite (<= 25203 (+ (+ ?x2614 (- 16 ?x2972)) 24003)) (- 1) 0))))
(let ((?x4446 (ite (> 22803 (+ (+ ?x2614 (- 17 ?x2972)) 24003)) 1 (ite (<= 25203 (+ (+ ?x2614 (- 17 ?x2972)) 24003)) (- 1) 0))))
(let ((?x4598 (ite (>= ?x4564 (+ ?x2013 ?x4446)) 17 (ite (>= ?x4564 (+ ?x4499 ?x4854)) 16 ?x5038))))
(let ((?x5745 (ite (> 22803 (+ (+ ?x2614 (- 18 ?x2972)) 24003)) 1 (ite (<= 25203 (+ (+ ?x2614 (- 18 ?x2972)) 24003)) (- 1) 0))))
(let ((?x4576 (ite (> 22803 (+ (+ ?x2614 (- 19 ?x2972)) 24003)) 1 (ite (<= 25203 (+ (+ ?x2614 (- 19 ?x2972)) 24003)) (- 1) 0))))
(let ((?x4773 (ite (>= ?x4564 (+ ?x1584 ?x4576)) 19 (ite (>= ?x4564 (+ ?x5317 ?x5745)) 18 ?x4598))))
(let ((?x4710 (ite (> 22803 (+ (+ ?x2614 (- 20 ?x2972)) 24003)) 1 (ite (<= 25203 (+ (+ ?x2614 (- 20 ?x2972)) 24003)) (- 1) 0))))
(let ((?x5024 (ite (> 22803 (+ (+ ?x2614 (- 21 ?x2972)) 24003)) 1 (ite (<= 25203 (+ (+ ?x2614 (- 21 ?x2972)) 24003)) (- 1) 0))))
(let ((?x4311 (ite (>= ?x4564 (+ ?x5396 ?x5024)) 21 (ite (>= ?x4564 (+ ?x5004 ?x4710)) 20 ?x4773))))
(let ((?x3826 (ite (> 22803 (+ (+ ?x2614 (- 22 ?x2972)) 24003)) 1 (ite (<= 25203 (+ (+ ?x2614 (- 22 ?x2972)) 24003)) (- 1) 0))))
(let ((?x683 (ite (> 22803 (+ (+ ?x2614 (- 23 ?x2972)) 24003)) 1 (ite (<= 25203 (+ (+ ?x2614 (- 23 ?x2972)) 24003)) (- 1) 0))))
(let ((?x709 (ite (>= ?x4564 (+ ?x1377 ?x683)) 23 (ite (>= ?x4564 (+ ?x3918 ?x3826)) 22 ?x4311))))
(let ((?x2784 (ite (> 22803 (+ (+ ?x2614 (- 24 ?x2972)) 24003)) 1 (ite (<= 25203 (+ (+ ?x2614 (- 24 ?x2972)) 24003)) (- 1) 0))))
(let ((?x5862 (ite (> 22803 (+ (+ ?x2614 (- 25 ?x2972)) 24003)) 1 (ite (<= 25203 (+ (+ ?x2614 (- 25 ?x2972)) 24003)) (- 1) 0))))
(let ((?x2123 (ite (>= ?x4564 (+ ?x4784 ?x5862)) 25 (ite (>= ?x4564 (+ ?x1542 ?x2784)) 24 ?x709))))
(let ((?x4436 (ite (> 22803 (+ (+ ?x2614 (- 26 ?x2972)) 24003)) 1 (ite (<= 25203 (+ (+ ?x2614 (- 26 ?x2972)) 24003)) (- 1) 0))))
(let ((?x4553 (ite (> 22803 (+ (+ ?x2614 (- 27 ?x2972)) 24003)) 1 (ite (<= 25203 (+ (+ ?x2614 (- 27 ?x2972)) 24003)) (- 1) 0))))
(let ((?x3752 (ite (>= ?x4564 (+ ?x5243 ?x4553)) 27 (ite (>= ?x4564 (+ ?x2871 ?x4436)) 26 ?x2123))))
(let ((?x3118 (ite (> 22803 (+ (+ ?x2614 (- 28 ?x2972)) 24003)) 1 (ite (<= 25203 (+ (+ ?x2614 (- 28 ?x2972)) 24003)) (- 1) 0))))
(let ((?x5608 (ite (> 22803 (+ (+ ?x2614 (- 29 ?x2972)) 24003)) 1 (ite (<= 25203 (+ (+ ?x2614 (- 29 ?x2972)) 24003)) (- 1) 0))))
(let ((?x2710 (ite (>= ?x4564 (+ ?x5838 ?x5608)) 29 (ite (>= ?x4564 (+ ?x2796 ?x3118)) 28 ?x3752))))
(let ((?x3890 (ite (> 22803 (+ (+ ?x2614 (- 30 ?x2972)) 24003)) 1 (ite (<= 25203 (+ (+ ?x2614 (- 30 ?x2972)) 24003)) (- 1) 0))))
(let ((?x5187 (ite (> 22803 (+ (+ ?x2614 (- 31 ?x2972)) 24003)) 1 (ite (<= 25203 (+ (+ ?x2614 (- 31 ?x2972)) 24003)) (- 1) 0))))
(let ((?x4288 (ite (>= ?x4564 (+ ?x4105 ?x5187)) 31 (ite (>= ?x4564 (+ ?x4215 ?x3890)) 30 ?x2710))))
(let ((?x5874 (ite (> 22803 (+ (+ ?x2614 (- 32 ?x2972)) 24003)) 1 (ite (<= 25203 (+ (+ ?x2614 (- 32 ?x2972)) 24003)) (- 1) 0))))
(let ((?x1609 (ite (> 22803 (+ (+ ?x2614 (- 33 ?x2972)) 24003)) 1 (ite (<= 25203 (+ (+ ?x2614 (- 33 ?x2972)) 24003)) (- 1) 0))))
(let ((?x5576 (ite (>= ?x4564 (+ ?x2854 ?x1609)) 33 (ite (>= ?x4564 (+ ?x741 ?x5874)) 32 ?x4288))))
(let ((?x2026 (ite (> 22803 (+ (+ ?x2614 (- 34 ?x2972)) 24003)) 1 (ite (<= 25203 (+ (+ ?x2614 (- 34 ?x2972)) 24003)) (- 1) 0))))
(let ((?x4763 (ite (> 22803 (+ (+ ?x2614 (- 35 ?x2972)) 24003)) 1 (ite (<= 25203 (+ (+ ?x2614 (- 35 ?x2972)) 24003)) (- 1) 0))))
(let ((?x4751 (ite (>= ?x4564 (+ ?x3942 ?x4763)) 35 (ite (>= ?x4564 (+ ?x5675 ?x2026)) 34 ?x5576))))
(let ((?x3666 (ite (> 22803 (+ (+ ?x2614 (- 36 ?x2972)) 24003)) 1 (ite (<= 25203 (+ (+ ?x2614 (- 36 ?x2972)) 24003)) (- 1) 0))))
(let ((?x3238 (ite (> 22803 (+ (+ ?x2614 (- 37 ?x2972)) 24003)) 1 (ite (<= 25203 (+ (+ ?x2614 (- 37 ?x2972)) 24003)) (- 1) 0))))
(let ((?x4450 (ite (>= ?x4564 (+ ?x2003 ?x3238)) 37 (ite (>= ?x4564 (+ ?x2744 ?x3666)) 36 ?x4751))))
(let ((?x5016 (ite (> 22803 (+ (+ ?x2614 (- 38 ?x2972)) 24003)) 1 (ite (<= 25203 (+ (+ ?x2614 (- 38 ?x2972)) 24003)) (- 1) 0))))
(let ((?x1721 (ite (> 22803 (+ (+ ?x2614 (- 39 ?x2972)) 24003)) 1 (ite (<= 25203 (+ (+ ?x2614 (- 39 ?x2972)) 24003)) (- 1) 0))))
(let ((?x1857 (ite (>= ?x4564 (+ ?x4952 ?x1721)) 39 (ite (>= ?x4564 (+ ?x4856 ?x5016)) 38 ?x4450))))
(let ((?x5262 (ite (> 22803 (+ (+ ?x2614 (- 40 ?x2972)) 24003)) 1 (ite (<= 25203 (+ (+ ?x2614 (- 40 ?x2972)) 24003)) (- 1) 0))))
(let ((?x4509 (ite (> 22803 (+ (+ ?x2614 (- 41 ?x2972)) 24003)) 1 (ite (<= 25203 (+ (+ ?x2614 (- 41 ?x2972)) 24003)) (- 1) 0))))
(let ((?x2351 (ite (>= ?x4564 (+ ?x4849 ?x4509)) 41 (ite (>= ?x4564 (+ ?x5632 ?x5262)) 40 ?x1857))))
(let ((?x1800 (ite (> 22803 (+ (+ ?x2614 (- 42 ?x2972)) 24003)) 1 (ite (<= 25203 (+ (+ ?x2614 (- 42 ?x2972)) 24003)) (- 1) 0))))
(let ((?x5089 (ite (> 22803 (+ (+ ?x2614 (- 43 ?x2972)) 24003)) 1 (ite (<= 25203 (+ (+ ?x2614 (- 43 ?x2972)) 24003)) (- 1) 0))))
(let ((?x4589 (ite (>= ?x4564 (+ ?x5447 ?x5089)) 43 (ite (>= ?x4564 (+ ?x4819 ?x1800)) 42 ?x2351))))
(let ((?x5520 (ite (> 22803 (+ (+ ?x2614 (- 44 ?x2972)) 24003)) 1 (ite (<= 25203 (+ (+ ?x2614 (- 44 ?x2972)) 24003)) (- 1) 0))))
(let ((?x1975 (ite (> 22803 (+ (+ ?x2614 (- 45 ?x2972)) 24003)) 1 (ite (<= 25203 (+ (+ ?x2614 (- 45 ?x2972)) 24003)) (- 1) 0))))
(let ((?x4277 (ite (>= ?x4564 (+ ?x782 ?x1975)) 45 (ite (>= ?x4564 (+ ?x3649 ?x5520)) 44 ?x4589))))
(let ((?x5793 (ite (> 22803 (+ (+ ?x2614 (- 46 ?x2972)) 24003)) 1 (ite (<= 25203 (+ (+ ?x2614 (- 46 ?x2972)) 24003)) (- 1) 0))))
(let ((?x5716 (ite (> 22803 (+ (+ ?x2614 (- 47 ?x2972)) 24003)) 1 (ite (<= 25203 (+ (+ ?x2614 (- 47 ?x2972)) 24003)) (- 1) 0))))
(let ((?x1350 (ite (>= ?x4564 (+ ?x3420 ?x5716)) 47 (ite (>= ?x4564 (+ ?x2995 ?x5793)) 46 ?x4277))))
(let ((?x3555 (+ ?x2614 (- ?x1350 ?x2972))))
(let ((?x600 (+ ?x3555 24003)))
(let ((?x5237 (+ (select ?x400 ?x1350) (ite (> 22803 ?x600) 1 (ite (<= 25203 ?x600) (- 1) 0)))))
(let ((?x3094 (- ?x4564 ?x5237)))
(let ((?x2860 (ite (or (= 22802 ?x600) (= 25202 ?x600)) 28 (select ?x306 ?x1350))))
(let (($x3004 (= (ite (= 1 (ite (>= ?x3094 ?x2860) 1 0)) (- ?x3094 ?x2860) ?x3094) (ite (= 1 (ite (>= ?x4936 ?x3606) 1 0)) (- ?x4936 ?x3606) ?x4936))))
(let (($x5107 (= (+ ?x3555 (ite (>= ?x3094 ?x2860) 1 0)) (+ ?x3388 (ite (>= ?x4936 ?x3606) 1 0)))))
(not (and $x5107 $x3004))))))))))))))))))))))))))))))))))))))))))))))))))))))))))))))))))))))))))))))))))))))))))))))))))))))))))))))))))))))))))))))))))))))))))))))))))))))))))))))))))))))))))))))))))))))))))))))))))))))))))))))))))))))))))))))))))))))))))))))))))))))))))))))))))))))))))))))))))))))))))))
(check-sat)
